Version identifier: 22.1.1.0 | 2022-11-28 | 9160aff4d
CPXPARAM_ClockType                               1
CPXPARAM_Read_DataCheck                          1
CPXPARAM_Threads                                 1
CPXPARAM_Simplex_Tolerances_Optimality           1.0000000000000001e-09
CPXPARAM_TimeLimit                               7200
CPXPARAM_MIP_Tolerances_AbsMIPGap                0
CPXPARAM_MIP_Tolerances_MIPGap                   0
CPXPARAM_MIP_Tolerances_Integrality              0
Tried aggregator 4 times.
MIQP Presolve eliminated 436614 rows and 8132 columns.
MIQP Presolve modified 790 coefficients.
Aggregator did 6057 substitutions.
Reduced MIQP has 20380 rows, 10311 columns, and 89041 nonzeros.
Reduced MIQP has 9795 binaries, 516 generals, 0 SOSs, and 0 indicators.
Reduced MIQP objective Q matrix has 516 nonzeros.
Presolve time = 0.98 sec. (557.66 ticks)
Probing time = 0.03 sec. (8.53 ticks)
Tried aggregator 1 time.
MIQP Presolve eliminated 28 rows and 0 columns.
MIQP Presolve modified 258 coefficients.
Reduced MIQP has 20352 rows, 10311 columns, and 88626 nonzeros.
Reduced MIQP has 9795 binaries, 516 generals, 0 SOSs, and 0 indicators.
Reduced MIQP objective Q matrix has 516 nonzeros.
Presolve time = 0.08 sec. (50.47 ticks)
Classifier predicts products in MIQP should be linearized.
Probing time = 0.02 sec. (8.08 ticks)
Clique table members: 23644.
MIP emphasis: balance optimality and feasibility.
MIP search method: dynamic search.
Parallel mode: none, using 1 thread.
Root relaxation solution time = 29.49 sec. (45332.31 ticks)

        Nodes                                         Cuts/
   Node  Left     Objective  IInf  Best Integer    Best Bound    ItCnt     Gap

      0     0     3094.8295  6110                   3094.8295       17         

Clique cuts applied:  689
Zero-half cuts applied:  771

Root node processing (before b&c):
  Real time             = 7201.53 sec. (3476435.69 ticks)
Sequential b&c:
  Real time             =    0.00 sec. (0.00 ticks)
                          ------------
Total (root+branch&cut) = 7201.53 sec. (3476435.69 ticks)
Solution is infeasible.

---------------------
@@@ MIP_time_limit_infeasible
Traceback (most recent call last):
  File "/scratch/scherif/DiverseSAT-journal_sup/DiverseSAT_Supplementary_Experiments/experiment-1/cplex/jobs/../solvers/CPLEX-QP-SE.py", line 118, in <module>
    print(f">>> Benchmark {os.path.basename(cnf_file)} k {k} OPT {int(prob.solution.get_objective_value())}"
  File "/users/scherif/.local/lib/python3.9/site-packages/cplex/_internal/_subinterfaces.py", line 7211, in get_objective_value
    return CPX_PROC.getobjval(self._env._e, self._cplex._lp)
  File "/users/scherif/.local/lib/python3.9/site-packages/cplex/_internal/_procedural.py", line 2055, in getobjval
    check_status(env, status)
  File "/users/scherif/.local/lib/python3.9/site-packages/cplex/_internal/_procedural.py", line 249, in __call__
    raise CplexSolverError(error_string, env, status)
cplex.exceptions.errors.CplexSolverError: CPLEX Error  1217: No solution exists.
